WARNING: for repeatability, setting FPU to use double precision
============================[ Problem Statistics ]=============================
|                                                                             |
|  Number of variables:        231144                                         |
|  Number of clauses:          535950                                         |
|  Parse time:                   0.30 s                                       |
|                                                                             |
============================[ Search Statistics ]==============================
| Conflicts |          ORIGINAL         |          LEARNT          | Progress |
|           |    Vars  Clauses Literals |    Limit  Clauses Lit/Cl |          |
===============================================================================
|       100 |  127764   513836  1154636 |   188406      100     12 | 44.725 % |
|       250 |  127764   513836  1154636 |   207247      250     18 | 44.725 % |
|       475 |  127764   513836  1154636 |   227971      475     47 | 44.725 % |
|       812 |  127764   513836  1154636 |   250769      812     44 | 44.725 % |
|      1318 |  127764   513836  1154636 |   275846     1318     40 | 44.725 % |
===============================================================================
restarts              : 12
conflicts             : 1804           (1030 /sec)
decisions             : 33872          (0.00 % random) (19332 /sec)
propagations          : 5852465        (3340240 /sec)
conflict literals     : 73519          (6.96 % deleted)
Memory used           : 62.00 MB
CPU time              : 1.75211 s

SATISFIABLE
